NAME: output/a280.tsp_GreedyInsert.tour
TYPE: TOUR
DIMENSION: 281
TOUR_SECTION
1
2
280
3
279
278
277
4
276
275
274
273
272
271
16
17
133
132
131
130
129
150
178
179
180
186
193
197
198
199
145
146
147
148
149
139
138
137
136
135
134
270
269
268
267
261
260
259
258
256
255
252
209
210
211
214
215
218
219
249
248
250
247
244
243
242
241
240
245
246
239
238
237
236
235
234
233
232
231
251
230
229
228
227
226
225
224
223
222
221
220
217
216
213
212
207
205
206
208
253
254
257
262
263
264
265
266
140
141
142
143
144
200
204
203
202
201
196
195
194
192
191
190
189
188
187
185
184
183
182
181
176
177
151
152
156
153
155
154
174
173
107
106
105
108
110
111
114
115
117
118
61
60
43
42
41
40
39
35
36
37
38
50
51
52
53
49
48
54
55
47
46
56
57
45
44
59
58
116
86
65
62
63
64
68
69
67
70
71
72
73
74
75
77
78
76
66
85
113
87
112
88
84
83
82
81
79
80
109
89
90
91
93
94
95
96
97
98
92
104
103
102
101
99
100
169
170
172
171
168
167
166
165
164
163
162
161
175
160
159
158
157
119
120
121
122
123
124
125
30
31
32
33
34
126
127
128
21
20
19
18
29
28
27
26
22
25
23
24
15
14
13
12
11
9
10
8
7
6
5
1
-1
